p cnf 160 542
c p weight 64 -1 0
c p weight -64 1 0
c p weight 66 6.12323399573676603586882014729198302312846062338790031898128063403419218957424163818359375E-17 0
c p weight -66 1 0
c p weight 67 1 0
c p weight -67 1 0
c p weight 68 -1 0
c p weight -68 1 0
c p weight 70 -1 0
c p weight -70 1 0
c p weight 73 -1 0
c p weight -73 1 0
c p weight 76 -1 0
c p weight -76 1 0
c p weight 79 -1 0
c p weight -79 1 0
c p weight 82 -1 0
c p weight -82 1 0
c p weight 85 -1 0
c p weight -85 1 0
c p weight 88 -1 0
c p weight -88 1 0
c p weight 91 -1 0
c p weight -91 1 0
c p weight 94 -1 0
c p weight -94 1 0
c p weight 97 -1 0
c p weight -97 1 0
c p weight 100 -1 0
c p weight -100 1 0
c p weight 103 -1 0
c p weight -103 1 0
c p weight 106 -1 0
c p weight -106 1 0
c p weight 109 -1 0
c p weight -109 1 0
c p weight 112 -1 0
c p weight -112 1 0
c p weight 115 -1 0
c p weight -115 1 0
c p weight 118 -1 0
c p weight -118 1 0
c p weight 121 -1 0
c p weight -121 1 0
c p weight 124 -1 0
c p weight -124 1 0
c p weight 127 -1 0
c p weight -127 1 0
c p weight 130 -1 0
c p weight -130 1 0
c p weight 133 -1 0
c p weight -133 1 0
c p weight 136 -1 0
c p weight -136 1 0
c p weight 139 -1 0
c p weight -139 1 0
c p weight 142 -1 0
c p weight -142 1 0
c p weight 145 -1 0
c p weight -145 1 0
c p weight 148 -1 0
c p weight -148 1 0
c p weight 151 -1 0
c p weight -151 1 0
c p weight 154 -1 0
c p weight -154 1 0
c p weight 157 -1 0
c p weight -157 1 0
c p weight 160 -1 0
c p weight -160 1 0
-61 0
-59 0
-57 0
-55 0
-53 0
-51 0
-49 0
-47 0
-45 0
-43 0
-41 0
-39 0
-37 0
-35 0
-33 0
-31 0
-29 0
-27 0
-25 0
-23 0
-21 0
-19 0
-17 0
-15 0
-13 0
-11 0
-9 0
-7 0
-5 0
-3 0
-1 0
63 61 -62 0
63 -61 62 0
-63 61 62 0
-63 -61 -62 0
-64 61 0
-64 62 0
64 -61 -62 0
65 -61 63 0
-65 61 63 0
-66 63 0
65 -66 -61 0
-65 -66 61 0
65 66 61 -63 0
-65 66 -61 -63 0
-67 63 0
65 -67 61 0
-65 -67 -61 0
65 67 -61 -63 0
-65 67 61 -63 0
-68 65 0
-68 63 0
-68 -61 0
68 -65 61 -63 0
69 65 -63 0
69 -65 63 0
-69 65 63 0
-69 -65 -63 0
-70 65 0
-70 63 0
70 -65 -63 0
71 65 -59 0
71 -65 59 0
-71 65 59 0
-71 -65 -59 0
72 69 -60 0
72 -69 60 0
-72 69 60 0
-72 -69 -60 0
-73 65 0
-73 60 0
-73 59 -69 0
-73 -59 69 0
73 -65 59 69 -60 0
73 -65 -59 -69 -60 0
74 71 -57 0
74 -71 57 0
-74 71 57 0
-74 -71 -57 0
75 60 -58 0
75 -60 58 0
-75 60 58 0
-75 -60 -58 0
-76 71 0
-76 58 0
-76 57 -60 0
-76 -57 60 0
76 -71 57 60 -58 0
76 -71 -57 -60 -58 0
77 74 -55 0
77 -74 55 0
-77 74 55 0
-77 -74 -55 0
78 58 -56 0
78 -58 56 0
-78 58 56 0
-78 -58 -56 0
-79 74 0
-79 56 0
-79 55 -58 0
-79 -55 58 0
79 -74 55 58 -56 0
79 -74 -55 -58 -56 0
80 77 -53 0
80 -77 53 0
-80 77 53 0
-80 -77 -53 0
81 56 -54 0
81 -56 54 0
-81 56 54 0
-81 -56 -54 0
-82 77 0
-82 54 0
-82 53 -56 0
-82 -53 56 0
82 -77 53 56 -54 0
82 -77 -53 -56 -54 0
83 80 -51 0
83 -80 51 0
-83 80 51 0
-83 -80 -51 0
84 54 -52 0
84 -54 52 0
-84 54 52 0
-84 -54 -52 0
-85 80 0
-85 52 0
-85 51 -54 0
-85 -51 54 0
85 -80 51 54 -52 0
85 -80 -51 -54 -52 0
86 83 -49 0
86 -83 49 0
-86 83 49 0
-86 -83 -49 0
87 52 -50 0
87 -52 50 0
-87 52 50 0
-87 -52 -50 0
-88 83 0
-88 50 0
-88 49 -52 0
-88 -49 52 0
88 -83 49 52 -50 0
88 -83 -49 -52 -50 0
89 86 -47 0
89 -86 47 0
-89 86 47 0
-89 -86 -47 0
90 50 -48 0
90 -50 48 0
-90 50 48 0
-90 -50 -48 0
-91 86 0
-91 48 0
-91 47 -50 0
-91 -47 50 0
91 -86 47 50 -48 0
91 -86 -47 -50 -48 0
92 89 -45 0
92 -89 45 0
-92 89 45 0
-92 -89 -45 0
93 48 -46 0
93 -48 46 0
-93 48 46 0
-93 -48 -46 0
-94 89 0
-94 46 0
-94 45 -48 0
-94 -45 48 0
94 -89 45 48 -46 0
94 -89 -45 -48 -46 0
95 92 -43 0
95 -92 43 0
-95 92 43 0
-95 -92 -43 0
96 46 -44 0
96 -46 44 0
-96 46 44 0
-96 -46 -44 0
-97 92 0
-97 44 0
-97 43 -46 0
-97 -43 46 0
97 -92 43 46 -44 0
97 -92 -43 -46 -44 0
98 95 -41 0
98 -95 41 0
-98 95 41 0
-98 -95 -41 0
99 44 -42 0
99 -44 42 0
-99 44 42 0
-99 -44 -42 0
-100 95 0
-100 42 0
-100 41 -44 0
-100 -41 44 0
100 -95 41 44 -42 0
100 -95 -41 -44 -42 0
101 98 -39 0
101 -98 39 0
-101 98 39 0
-101 -98 -39 0
102 42 -40 0
102 -42 40 0
-102 42 40 0
-102 -42 -40 0
-103 98 0
-103 40 0
-103 39 -42 0
-103 -39 42 0
103 -98 39 42 -40 0
103 -98 -39 -42 -40 0
104 101 -37 0
104 -101 37 0
-104 101 37 0
-104 -101 -37 0
105 40 -38 0
105 -40 38 0
-105 40 38 0
-105 -40 -38 0
-106 101 0
-106 38 0
-106 37 -40 0
-106 -37 40 0
106 -101 37 40 -38 0
106 -101 -37 -40 -38 0
107 104 -35 0
107 -104 35 0
-107 104 35 0
-107 -104 -35 0
108 38 -36 0
108 -38 36 0
-108 38 36 0
-108 -38 -36 0
-109 104 0
-109 36 0
-109 35 -38 0
-109 -35 38 0
109 -104 35 38 -36 0
109 -104 -35 -38 -36 0
110 107 -33 0
110 -107 33 0
-110 107 33 0
-110 -107 -33 0
111 36 -34 0
111 -36 34 0
-111 36 34 0
-111 -36 -34 0
-112 107 0
-112 34 0
-112 33 -36 0
-112 -33 36 0
112 -107 33 36 -34 0
112 -107 -33 -36 -34 0
113 110 -31 0
113 -110 31 0
-113 110 31 0
-113 -110 -31 0
114 34 -32 0
114 -34 32 0
-114 34 32 0
-114 -34 -32 0
-115 110 0
-115 32 0
-115 31 -34 0
-115 -31 34 0
115 -110 31 34 -32 0
115 -110 -31 -34 -32 0
116 113 -29 0
116 -113 29 0
-116 113 29 0
-116 -113 -29 0
117 32 -30 0
117 -32 30 0
-117 32 30 0
-117 -32 -30 0
-118 113 0
-118 30 0
-118 29 -32 0
-118 -29 32 0
118 -113 29 32 -30 0
118 -113 -29 -32 -30 0
119 116 -27 0
119 -116 27 0
-119 116 27 0
-119 -116 -27 0
120 30 -28 0
120 -30 28 0
-120 30 28 0
-120 -30 -28 0
-121 116 0
-121 28 0
-121 27 -30 0
-121 -27 30 0
121 -116 27 30 -28 0
121 -116 -27 -30 -28 0
122 119 -25 0
122 -119 25 0
-122 119 25 0
-122 -119 -25 0
123 28 -26 0
123 -28 26 0
-123 28 26 0
-123 -28 -26 0
-124 119 0
-124 26 0
-124 25 -28 0
-124 -25 28 0
124 -119 25 28 -26 0
124 -119 -25 -28 -26 0
125 122 -23 0
125 -122 23 0
-125 122 23 0
-125 -122 -23 0
126 26 -24 0
126 -26 24 0
-126 26 24 0
-126 -26 -24 0
-127 122 0
-127 24 0
-127 23 -26 0
-127 -23 26 0
127 -122 23 26 -24 0
127 -122 -23 -26 -24 0
128 125 -21 0
128 -125 21 0
-128 125 21 0
-128 -125 -21 0
129 24 -22 0
129 -24 22 0
-129 24 22 0
-129 -24 -22 0
-130 125 0
-130 22 0
-130 21 -24 0
-130 -21 24 0
130 -125 21 24 -22 0
130 -125 -21 -24 -22 0
131 128 -19 0
131 -128 19 0
-131 128 19 0
-131 -128 -19 0
132 22 -20 0
132 -22 20 0
-132 22 20 0
-132 -22 -20 0
-133 128 0
-133 20 0
-133 19 -22 0
-133 -19 22 0
133 -128 19 22 -20 0
133 -128 -19 -22 -20 0
134 131 -17 0
134 -131 17 0
-134 131 17 0
-134 -131 -17 0
135 20 -18 0
135 -20 18 0
-135 20 18 0
-135 -20 -18 0
-136 131 0
-136 18 0
-136 17 -20 0
-136 -17 20 0
136 -131 17 20 -18 0
136 -131 -17 -20 -18 0
137 134 -15 0
137 -134 15 0
-137 134 15 0
-137 -134 -15 0
138 18 -16 0
138 -18 16 0
-138 18 16 0
-138 -18 -16 0
-139 134 0
-139 16 0
-139 15 -18 0
-139 -15 18 0
139 -134 15 18 -16 0
139 -134 -15 -18 -16 0
140 137 -13 0
140 -137 13 0
-140 137 13 0
-140 -137 -13 0
141 16 -14 0
141 -16 14 0
-141 16 14 0
-141 -16 -14 0
-142 137 0
-142 14 0
-142 13 -16 0
-142 -13 16 0
142 -137 13 16 -14 0
142 -137 -13 -16 -14 0
143 140 -11 0
143 -140 11 0
-143 140 11 0
-143 -140 -11 0
144 14 -12 0
144 -14 12 0
-144 14 12 0
-144 -14 -12 0
-145 140 0
-145 12 0
-145 11 -14 0
-145 -11 14 0
145 -140 11 14 -12 0
145 -140 -11 -14 -12 0
146 143 -9 0
146 -143 9 0
-146 143 9 0
-146 -143 -9 0
147 12 -10 0
147 -12 10 0
-147 12 10 0
-147 -12 -10 0
-148 143 0
-148 10 0
-148 9 -12 0
-148 -9 12 0
148 -143 9 12 -10 0
148 -143 -9 -12 -10 0
149 146 -7 0
149 -146 7 0
-149 146 7 0
-149 -146 -7 0
150 10 -8 0
150 -10 8 0
-150 10 8 0
-150 -10 -8 0
-151 146 0
-151 8 0
-151 7 -10 0
-151 -7 10 0
151 -146 7 10 -8 0
151 -146 -7 -10 -8 0
152 149 -5 0
152 -149 5 0
-152 149 5 0
-152 -149 -5 0
153 8 -6 0
153 -8 6 0
-153 8 6 0
-153 -8 -6 0
-154 149 0
-154 6 0
-154 5 -8 0
-154 -5 8 0
154 -149 5 8 -6 0
154 -149 -5 -8 -6 0
155 152 -3 0
155 -152 3 0
-155 152 3 0
-155 -152 -3 0
156 6 -4 0
156 -6 4 0
-156 6 4 0
-156 -6 -4 0
-157 152 0
-157 4 0
-157 3 -6 0
-157 -3 6 0
157 -152 3 6 -4 0
157 -152 -3 -6 -4 0
158 155 -1 0
158 -155 1 0
-158 155 1 0
-158 -155 -1 0
159 4 -2 0
159 -4 2 0
-159 4 2 0
-159 -4 -2 0
-160 155 0
-160 2 0
-160 1 -4 0
-160 -1 4 0
160 -155 1 4 -2 0
160 -155 -1 -4 -2 0
-158 0
-155 0
-159 0
-152 0
-156 0
-149 0
-153 0
-146 0
-150 0
-143 0
-147 0
-140 0
-144 0
-137 0
-141 0
-134 0
-138 0
-131 0
-135 0
-128 0
-132 0
-125 0
-129 0
-122 0
-126 0
-119 0
-123 0
-116 0
-120 0
-113 0
-117 0
-110 0
-114 0
-107 0
-111 0
-104 0
-108 0
-101 0
-105 0
-98 0
-102 0
-95 0
-99 0
-92 0
-96 0
-89 0
-93 0
-86 0
-90 0
-83 0
-87 0
-80 0
-84 0
-77 0
-81 0
-74 0
-78 0
-71 0
-75 0
-65 0
-72 0
